####################################################################### 
# 
# This file contains crystal structure data downloaded from the 
# Cambridge Structural Database (CSD) hosted by the Cambridge 
# Crystallographic Data Centre (CCDC) in cooperation with FIZ Karlsruhe.
# 
# Please note that these data are only for research purposes or private use.
# For detailed information please see under Terms & Conditions.
# Full information about CCDC and FIZ Karlsruhe data access policies and 
# citation guidelines are available at http://www.ccdc.cam.ac.uk/access/V1
# 
# Audit and citation data items may have been added by FIZ Karlsruhe. 
# Please retain this information to preserve the provenance of 
# this file and to allow appropriate attribution of the data. 
# 
#######################################################################

data_151871-ICSD
_database_code_depnum_ccdc_archive 'CCDC 1668673'
loop_
_citation_id
_citation_doi
_citation_year
1 10.1002/pssa.200406805 2004
_audit_update_record             
;
2018-02-27 deposited with the CCDC.	2025-03-31 downloaded from the CCDC.
;
_database_code_ICSD              151871
_chemical_name_systematic        'Silver Pentaindium Telluride'
_chemical_formula_sum            'Ag1 In5 Te8'
_cell_length_a                   6.1952
_cell_length_b                   6.1952
_cell_length_c                   12.419
_cell_angle_alpha                90
_cell_angle_beta                 90
_cell_angle_gamma                90
_cell_volume                     476.65
_cell_formula_units_Z            1
_symmetry_space_group_name_H-M   'P -4 2 m'
_symmetry_Int_Tables_number      111
_symmetry_cell_setting           tetragonal
_refine_ls_R_factor_all          0.068
loop_
_symmetry_equiv_pos_site_id
_symmetry_equiv_pos_as_xyz
1 '-y, -x, z'
2 'y, x, z'
3 'y, -x, -z'
4 '-y, x, -z'
5 'x, -y, -z'
6 '-x, y, -z'
7 '-x, -y, z'
8 'x, y, z'
loop_
_atom_site_label
_atom_site_type_symbol
_atom_site_fract_x
_atom_site_fract_y
_atom_site_fract_z
Ag1 Ag1+ 0 0 0.5
In1 In3+ 0 0.5 0.2491
In2 In3+ 0.5 0.5 0
Te1 Te2- 0.2291 0.2291 0.1131
Te2 Te2- 0.715 0.715 0.6171

#End of data_151871-ICSD


