####################################################################### 
# 
# This file contains crystal structure data downloaded from the 
# Cambridge Structural Database (CSD) hosted by the Cambridge 
# Crystallographic Data Centre (CCDC) in cooperation with FIZ Karlsruhe.
# 
# Please note that these data are only for research purposes or private use.
# For detailed information please see under Terms & Conditions.
# Full information about CCDC and FIZ Karlsruhe data access policies and 
# citation guidelines are available at http://www.ccdc.cam.ac.uk/access/V1
# 
# Audit and citation data items may have been added by FIZ Karlsruhe. 
# Please retain this information to preserve the provenance of 
# this file and to allow appropriate attribution of the data. 
# 
#######################################################################

data_656317-ICSD
_database_code_depnum_ccdc_archive 'CCDC 1766080'
loop_
_citation_id
_citation_doi
_citation_year
1 10.1002/crat.2170270721 1992
_audit_update_record             
;
2021-01-22 deposited with the CCDC.	2025-03-31 downloaded from the CCDC.
;
_database_code_ICSD              656317
_audit_creation_date             2010-02-01
_chemical_name_systematic        'Silver indium sulfide'
_chemical_formula_structural     'Ag In S2'
_chemical_formula_sum            'Ag1 In1 S2'
_chemical_name_structure_type    Chalcopyrite-CuFeS2
_exptl_crystal_density_diffrn    4.94
_cell_length_a                   5.871
_cell_length_b                   5.871
_cell_length_c                   11.186
_cell_angle_alpha                90.
_cell_angle_beta                 90.
_cell_angle_gamma                90.
_cell_volume                     385.57
_cell_formula_units_Z            4
_symmetry_space_group_name_H-M   'I -4 2 d'
_symmetry_Int_Tables_number      122
loop_
_symmetry_equiv_pos_site_id
_symmetry_equiv_pos_as_xyz
1 '-y, -x+1/2, z+1/4'
2 'y, -x, -z'
3 'y, x+1/2, z+1/4'
4 '-y, x, -z'
5 'x, -y+1/2, -z+1/4'
6 '-x, -y, z'
7 '-x, y+1/2, -z+1/4'
8 'x, y, z'
9 '-y+1/2, -x, z+3/4'
10 'y+1/2, -x+1/2, -z+1/2'
11 'y+1/2, x, z+3/4'
12 '-y+1/2, x+1/2, -z+1/2'
13 'x+1/2, -y, -z+3/4'
14 '-x+1/2, -y+1/2, z+1/2'
15 '-x+1/2, y, -z+3/4'
16 'x+1/2, y+1/2, z+1/2'
loop_
_atom_type_symbol
_atom_type_oxidation_number
Ag1+ 1
In3+ 3
S2- -2
loop_
_atom_site_label
_atom_site_type_symbol
_atom_site_symmetry_multiplicity
_atom_site_Wyckoff_symbol
_atom_site_fract_x
_atom_site_fract_y
_atom_site_fract_z
_atom_site_B_iso_or_equiv
_atom_site_occupancy
_atom_site_attached_hydrogens
Ag1 Ag1+ 4 a 0 0 0 . 1. 0
In1 In3+ 4 b 0 0 0.5 . 1. 0
S1 S2- 8 d 0.254 0.25 0.125 . 1. 0
#End of TTdata_656317-ICSD
