ALGO = Fast
CSHIFT = 1e-05
EDIFF = 1e-05
ENAUG = 1360
ENCUT = 680
GGA = Ps
ICHARG = 11
ISMEAR = -5
ISPIN = 1
ISYM = 2
LAECHG = True
LASPH = True
LCHARG = False
LELF = False
LMIXTAU = True
LOPTICS = True
LORBIT = 11
LREAL = False
LVTOT = True
LWAVE = True
NBANDS = 15
NCORE = 10
NEDOS = 2000
NELM = 200
NSW = 0
PREC = Accurate
SIGMA = 0.05
