pymatgen with grid density = 1230 / number of atoms
0
Gamma
8 8 8
