####################################################################### 
# 
# This file contains crystal structure data downloaded from the 
# Cambridge Structural Database (CSD) hosted by the Cambridge 
# Crystallographic Data Centre (CCDC) in cooperation with FIZ Karlsruhe.
# 
# Please note that these data are only for research purposes or private use.
# For detailed information please see under Terms & Conditions.
# Full information about CCDC and FIZ Karlsruhe data access policies and 
# citation guidelines are available at http://www.ccdc.cam.ac.uk/access/V1
# 
# Audit and citation data items may have been added by FIZ Karlsruhe. 
# Please retain this information to preserve the provenance of 
# this file and to allow appropriate attribution of the data. 
# 
#######################################################################

data_59667-ICSD
_database_code_depnum_ccdc_archive 'CCDC 1623469'
loop_
_citation_id
_citation_doi
_citation_year
1 10.1006/jssc.2002.9645 2002
_audit_update_record             
;
2018-02-26 deposited with the CCDC.	2025-03-31 downloaded from the CCDC.
;
_database_code_ICSD              59667
_chemical_name_systematic        'Rubidium Triindium Sulfide'
_chemical_formula_sum            'In3 Rb1 S5'
_cell_length_a                   12.393
_cell_length_b                   3.777
_cell_length_c                   15.385
_cell_angle_alpha                90
_cell_angle_beta                 112.6
_cell_angle_gamma                90
_cell_volume                     664.85
_cell_formula_units_Z            3
_symmetry_space_group_name_H-M   'P 1 2/m 1'
_symmetry_Int_Tables_number      10
_symmetry_cell_setting           monoclinic
loop_
_symmetry_equiv_pos_site_id
_symmetry_equiv_pos_as_xyz
1 '-x, y, -z'
2 '-x, -y, -z'
3 'x, -y, z'
4 'x, y, z'
loop_
_atom_site_label
_atom_site_type_symbol
_atom_site_fract_x
_atom_site_fract_y
_atom_site_fract_z
In1 In3+ 0.17463 0.5 0.16434
In2 In3+ 0.5 0.5 0.5
In3 In3+ 0.47711 0 0.28617
In4 In3+ 0.77068 0.5 0.26912
In5 In3+ 0.88273 0 0.07116
S1 S2- 0.26799 0 0.10184
S2 S2- 0.55614 0.5 0.21401
S3 S2- 0.06529 0 0.21474
S4 S2- 0.61215 0 0.45482
S5 S2- 0.77066 0.5 0.10827
S6 S2- 0.86556 0 0.36484
S7 S2- 0.35308 0.5 0.32046
S8 S2- 0 0.5 0
Rb1 Rb1+ 0.5 0 0
Rb2 Rb1+ 0.13386 0.5 0.42747

#End of data_59667-ICSD


