####################################################################### 
# 
# This file contains crystal structure data downloaded from the 
# Cambridge Structural Database (CSD) hosted by the Cambridge 
# Crystallographic Data Centre (CCDC) in cooperation with FIZ Karlsruhe.
# 
# Please note that these data are only for research purposes or private use.
# For detailed information please see under Terms & Conditions.
# Full information about CCDC and FIZ Karlsruhe data access policies and 
# citation guidelines are available at http://www.ccdc.cam.ac.uk/access/V1
# 
# Audit and citation data items may have been added by FIZ Karlsruhe. 
# Please retain this information to preserve the provenance of 
# this file and to allow appropriate attribution of the data. 
# 
#######################################################################

data_74969-ICSD
_database_code_depnum_ccdc_archive 'CCDC 1635637'
loop_
_citation_id
_citation_doi
_citation_year
1 10.1002/zaac.19946200522 1994
_audit_update_record             
;
2018-02-27 deposited with the CCDC.	2025-03-31 downloaded from the CCDC.
;
_database_code_ICSD              74969
_chemical_name_systematic        'Hexarubidium Dialuminate'
_chemical_formula_sum            'Al2 O6 Rb6'
_cell_length_a                   7.2592
_cell_length_b                   11.4333
_cell_length_c                   6.7806
_cell_angle_alpha                90
_cell_angle_beta                 104.05
_cell_angle_gamma                90
_cell_volume                     545.93
_cell_formula_units_Z            2
_symmetry_space_group_name_H-M   'C 1 2/m 1'
_symmetry_Int_Tables_number      12
_symmetry_cell_setting           monoclinic
_refine_ls_R_factor_all          0.072
loop_
_symmetry_equiv_pos_site_id
_symmetry_equiv_pos_as_xyz
1 '-x, y, -z'
2 '-x, -y, -z'
3 'x, -y, z'
4 'x, y, z'
5 '-x+1/2, y+1/2, -z'
6 '-x+1/2, -y+1/2, -z'
7 'x+1/2, -y+1/2, z'
8 'x+1/2, y+1/2, z'
loop_
_atom_site_label
_atom_site_type_symbol
_atom_site_fract_x
_atom_site_fract_y
_atom_site_fract_z
Rb1 Rb1+ 0 0.2685 0
Rb2 Rb1+ 0 0.1981 0.5
Rb3 Rb1+ 0.3692 0 0.6534
Al1 Al3+ 0.1559 0 0.146
O1 O2- 0.9028 0 0.13
O2 O2- 0.2721 0.1258 0.2608

#End of data_74969-ICSD


