####################################################################### 
# 
# This file contains crystal structure data downloaded from the 
# Cambridge Structural Database (CSD) hosted by the Cambridge 
# Crystallographic Data Centre (CCDC) in cooperation with FIZ Karlsruhe.
# 
# Please note that these data are only for research purposes or private use.
# For detailed information please see under Terms & Conditions.
# Full information about CCDC and FIZ Karlsruhe data access policies and 
# citation guidelines are available at http://www.ccdc.cam.ac.uk/access/V1
# 
# Audit and citation data items may have been added by FIZ Karlsruhe. 
# Please retain this information to preserve the provenance of 
# this file and to allow appropriate attribution of the data. 
# 
#######################################################################

data_88202-ICSD
_database_code_depnum_ccdc_archive 'CCDC 1647954'
loop_
_citation_id
_citation_doi
_citation_year
1 10.1016/S0925-8388(99)00092-4 1999
_audit_update_record             
;
2018-02-27 deposited with the CCDC.	2025-03-31 downloaded from the CCDC.
;
_database_code_ICSD              88202
_chemical_name_systematic        'Thallium Pentacopper Triselenide'
_chemical_formula_sum            'Cu5 Se3 Tl1'
_cell_length_a                   12.9032
_cell_length_b                   12.9032
_cell_length_c                   3.9851
_cell_angle_alpha                90
_cell_angle_beta                 90
_cell_angle_gamma                90
_cell_volume                     663.49
_cell_formula_units_Z            4
_symmetry_space_group_name_H-M   'P 42/m n m'
_symmetry_Int_Tables_number      136
_symmetry_cell_setting           tetragonal
loop_
_symmetry_equiv_pos_site_id
_symmetry_equiv_pos_as_xyz
1 '-y+1/2, x+1/2, -z+1/2'
2 'y+1/2, -x+1/2, -z+1/2'
3 'y, x, -z'
4 '-y, -x, -z'
5 'y+1/2, -x+1/2, z+1/2'
6 '-y+1/2, x+1/2, z+1/2'
7 '-y, -x, z'
8 'y, x, z'
9 'x+1/2, -y+1/2, -z+1/2'
10 '-x+1/2, y+1/2, -z+1/2'
11 'x, y, -z'
12 '-x, -y, -z'
13 '-x+1/2, y+1/2, z+1/2'
14 'x+1/2, -y+1/2, z+1/2'
15 '-x, -y, z'
16 'x, y, z'
loop_
_atom_site_label
_atom_site_type_symbol
_atom_site_fract_x
_atom_site_fract_y
_atom_site_fract_z
Tl1 Tl1+ 0.1072 0.1072 0
Cu1 Cu1+ 0.8207 0.1793 0
Cu2 Cu1+ 0.2145 0.4205 0
Cu3 Cu1+ 0.0152 0.3927 0
Se1 Se2- 0.3997 0.3997 0
Se2 Se2- 0.6166 0.1709 0

#End of data_88202-ICSD


