Si2                                     
   1.00000000000000     
     3.3335729972004917    0.0000000000000000    1.9246389981090721
     1.1111909992801432    3.1429239987499362    1.9246389992542634
     0.0000000000000000    0.0000000000000000    3.8492780000000000
  Si/           
               2
Direct
  0.8750000000000000  0.8750000000000000  0.8750000000000000
  0.1250000000000000  0.1250000000000000  0.1250000000000000
 
  0.00000000E+00  0.00000000E+00  0.00000000E+00
  0.00000000E+00  0.00000000E+00  0.00000000E+00
