####################################################################### 
# 
# This file contains crystal structure data downloaded from the 
# Cambridge Structural Database (CSD) hosted by the Cambridge 
# Crystallographic Data Centre (CCDC) in cooperation with FIZ Karlsruhe.
# 
# Please note that these data are only for research purposes or private use.
# For detailed information please see under Terms & Conditions.
# Full information about CCDC and FIZ Karlsruhe data access policies and 
# citation guidelines are available at http://www.ccdc.cam.ac.uk/access/V1
# 
# Audit and citation data items may have been added by FIZ Karlsruhe. 
# Please retain this information to preserve the provenance of 
# this file and to allow appropriate attribution of the data. 
# 
#######################################################################

data_23290-ICSD
_database_code_depnum_ccdc_archive 'CCDC 1599418'
loop_
_citation_id
_citation_doi
_citation_year
1 10.1107/S0567740880008795 1980
_audit_update_record             
;
2018-02-26 deposited with the CCDC.	2025-03-31 downloaded from the CCDC.
;
_database_code_ICSD              23290
_chemical_name_systematic        'Thallium Dithiotricuprate(I)'
_chemical_formula_sum            'Cu3 S2 Tl1'
_cell_length_a                   14.63
_cell_length_b                   3.863
_cell_length_c                   8.298
_cell_angle_alpha                90
_cell_angle_beta                 111.72
_cell_angle_gamma                90
_cell_volume                     435.67
_cell_formula_units_Z            4
_symmetry_space_group_name_H-M   'C 1 2/m 1'
_symmetry_Int_Tables_number      12
_symmetry_cell_setting           monoclinic
_refine_ls_R_factor_all          0.065
loop_
_symmetry_equiv_pos_site_id
_symmetry_equiv_pos_as_xyz
1 '-x, y, -z'
2 '-x, -y, -z'
3 'x, -y, z'
4 'x, y, z'
5 '-x+1/2, y+1/2, -z'
6 '-x+1/2, -y+1/2, -z'
7 'x+1/2, -y+1/2, z'
8 'x+1/2, y+1/2, z'
loop_
_atom_site_label
_atom_site_type_symbol
_atom_site_fract_x
_atom_site_fract_y
_atom_site_fract_z
Tl1 Tl1+ 0.139 0 0.0451
Cu1 Cu1+ 0.5933 0 0.6474
Cu2 Cu1+ 0.6878 0 0.429
Cu3 Cu1+ 0.0571 0 0.3947
S1 S2- 0.1889 0 0.6673
S2 S2- 0.5231 0 0.2302

#End of data_23290-ICSD


