####################################################################### 
# 
# This file contains crystal structure data downloaded from the 
# Cambridge Structural Database (CSD) hosted by the Cambridge 
# Crystallographic Data Centre (CCDC) in cooperation with FIZ Karlsruhe.
# 
# Please note that these data are only for research purposes or private use.
# For detailed information please see under Terms & Conditions.
# Full information about CCDC and FIZ Karlsruhe data access policies and 
# citation guidelines are available at http://www.ccdc.cam.ac.uk/access/V1
# 
# Audit and citation data items may have been added by FIZ Karlsruhe. 
# Please retain this information to preserve the provenance of 
# this file and to allow appropriate attribution of the data. 
# 
#######################################################################

data_300181-ICSD
_database_code_depnum_ccdc_archive 'CCDC 1723814'
loop_
_citation_id
_citation_doi
_citation_year
1 10.1524/zkri.1991.197.3-4.253 1991
_audit_update_record             
;
2018-02-28 deposited with the CCDC.	2025-03-31 downloaded from the CCDC.
;
_database_code_ICSD              300181
_chemical_name_systematic        
;
Hexacesium Di-mue-telluro-bis(ditelluroaluminate)
;
_chemical_formula_sum            'Al2 Cs6 Te6'
_cell_length_a                   9.1
_cell_length_b                   14.427
_cell_length_c                   11.908
_cell_angle_alpha                90
_cell_angle_beta                 126.38
_cell_angle_gamma                90
_cell_volume                     1258.65
_cell_formula_units_Z            2
_symmetry_space_group_name_H-M   'P 1 21/c 1'
_symmetry_Int_Tables_number      14
_symmetry_cell_setting           monoclinic
_refine_ls_R_factor_all          0.06
loop_
_symmetry_equiv_pos_site_id
_symmetry_equiv_pos_as_xyz
1 'x, -y+1/2, z+1/2'
2 '-x, -y, -z'
3 '-x, y+1/2, -z+1/2'
4 'x, y, z'
loop_
_atom_site_label
_atom_site_type_symbol
_atom_site_fract_x
_atom_site_fract_y
_atom_site_fract_z
Te1 Te2- 0.1431 0.6076 0.612
Te2 Te2- 0.352 0.3341 0.8061
Te3 Te2- 0.1137 0.5579 0.2368
Cs1 Cs1+ 0.3529 0.0818 0.6128
Cs2 Cs1+ 0.1269 0.8112 0.414
Cs3 Cs1+ 0.3779 0.375 0.5144
Al1 Al3+ 0.0672 0.0601 0.1599

#End of data_300181-ICSD


