####################################################################### 
# 
# This file contains crystal structure data downloaded from the 
# Cambridge Structural Database (CSD) hosted by the Cambridge 
# Crystallographic Data Centre (CCDC) in cooperation with FIZ Karlsruhe.
# 
# Please note that these data are only for research purposes or private use.
# For detailed information please see under Terms & Conditions.
# Full information about CCDC and FIZ Karlsruhe data access policies and 
# citation guidelines are available at http://www.ccdc.cam.ac.uk/access/V1
# 
# Audit and citation data items may have been added by FIZ Karlsruhe. 
# Please retain this information to preserve the provenance of 
# this file and to allow appropriate attribution of the data. 
# 
#######################################################################

data_52578-ICSD
_database_code_depnum_ccdc_archive 'CCDC 1617316'
loop_
_citation_id
_citation_doi
_citation_year
1 10.1002/crat.2170230309 1988
_audit_update_record             
;
2018-02-26 deposited with the CCDC.	2025-03-31 downloaded from the CCDC.
;
_database_code_ICSD              52578
_chemical_name_systematic        'Silver Indium Sulfide - Ht'
_chemical_formula_sum            'Ag1 In1 S2'
_cell_length_a                   6.977
_cell_length_b                   8.273
_cell_length_c                   6.695
_cell_angle_alpha                90
_cell_angle_beta                 90
_cell_angle_gamma                90
_cell_volume                     386.44
_cell_formula_units_Z            4
_symmetry_space_group_name_H-M   'P n a 21'
_symmetry_Int_Tables_number      33
_symmetry_cell_setting           orthorhombic
_refine_ls_R_factor_all          0.061
loop_
_symmetry_equiv_pos_site_id
_symmetry_equiv_pos_as_xyz
1 'x+1/2, -y+1/2, z'
2 '-x+1/2, y+1/2, z+1/2'
3 '-x, -y, z+1/2'
4 'x, y, z'
loop_
_atom_site_label
_atom_site_type_symbol
_atom_site_fract_x
_atom_site_fract_y
_atom_site_fract_z
Ag1 Ag1+ 0.08781 0.12404 0
In1 In3+ 0.07631 0.62586 0.99312
S1 S2- 0.0908 0.1302 0.3802
S2 S2- 0.069 0.6207 0.362

#End of data_52578-ICSD


