####################################################################### 
# 
# This file contains crystal structure data downloaded from the 
# Cambridge Structural Database (CSD) hosted by the Cambridge 
# Crystallographic Data Centre (CCDC) in cooperation with FIZ Karlsruhe.
# 
# Please note that these data are only for research purposes or private use.
# For detailed information please see under Terms & Conditions.
# Full information about CCDC and FIZ Karlsruhe data access policies and 
# citation guidelines are available at http://www.ccdc.cam.ac.uk/access/V1
# 
# Audit and citation data items may have been added by FIZ Karlsruhe. 
# Please retain this information to preserve the provenance of 
# this file and to allow appropriate attribution of the data. 
# 
#######################################################################

data_68524-ICSD
_database_code_depnum_ccdc_archive 'CCDC 1630442'
loop_
_citation_id
_citation_doi
_citation_year
1 10.1016/0022-5088(90)90318-E 1990
_audit_update_record             
;
2018-02-26 deposited with the CCDC.	2025-03-31 downloaded from the CCDC.
;
_database_code_ICSD              68524
_chemical_name_systematic        'Thallium Tricopper(I) Selenide'
_chemical_formula_sum            'Cu3 Se2 Tl1'
_cell_length_a                   15.2128
_cell_length_b                   4.0115
_cell_length_c                   8.3944
_cell_angle_alpha                90
_cell_angle_beta                 111.7
_cell_angle_gamma                90
_cell_volume                     475.97
_cell_formula_units_Z            4
_symmetry_space_group_name_H-M   'C 1 2/m 1'
_symmetry_Int_Tables_number      12
_symmetry_cell_setting           monoclinic
_refine_ls_R_factor_all          0.0453
loop_
_symmetry_equiv_pos_site_id
_symmetry_equiv_pos_as_xyz
1 '-x, y, -z'
2 '-x, -y, -z'
3 'x, -y, z'
4 'x, y, z'
5 '-x+1/2, y+1/2, -z'
6 '-x+1/2, -y+1/2, -z'
7 'x+1/2, -y+1/2, z'
8 'x+1/2, y+1/2, z'
loop_
_atom_site_label
_atom_site_type_symbol
_atom_site_fract_x
_atom_site_fract_y
_atom_site_fract_z
Tl1 Tl1+ 0.1383 0 0.0477
Cu1 Cu1+ 0.5872 0 0.6303
Cu2 Cu1+ 0.0591 0 0.4026
Cu3 Cu1+ 0.6896 0 0.446
Se1 Se2- 0.1938 0 0.6812
Se2 Se2- 0.5224 0 0.2282

#End of data_68524-ICSD


