####################################################################### 
# 
# This file contains crystal structure data downloaded from the 
# Cambridge Structural Database (CSD) hosted by the Cambridge 
# Crystallographic Data Centre (CCDC) in cooperation with FIZ Karlsruhe.
# 
# Please note that these data are only for research purposes or private use.
# For detailed information please see under Terms & Conditions.
# Full information about CCDC and FIZ Karlsruhe data access policies and 
# citation guidelines are available at http://www.ccdc.cam.ac.uk/access/V1
# 
# Audit and citation data items may have been added by FIZ Karlsruhe. 
# Please retain this information to preserve the provenance of 
# this file and to allow appropriate attribution of the data. 
# 
#######################################################################

data_81777-ICSD
_database_code_depnum_ccdc_archive 'CCDC 1641903'
loop_
_citation_id
_citation_doi
_citation_year
1 10.1016/0925-8388(95)02145-0 1996
_audit_update_record             
;
2018-02-27 deposited with the CCDC.	2025-03-31 downloaded from the CCDC.
;
_database_code_ICSD              81777
_chemical_name_systematic        
;
Thallium Heptacopper(I) Sulfide - Lt
;
_chemical_formula_sum            'Cu7 S4 Tl1'
_cell_length_a                   10.1725
_cell_length_b                   10.1725
_cell_length_c                   7.6376
_cell_angle_alpha                90
_cell_angle_beta                 90
_cell_angle_gamma                90
_cell_volume                     790.34
_cell_formula_units_Z            4
_symmetry_space_group_name_H-M   'P 4/n Z'
_symmetry_Int_Tables_number      85
_symmetry_cell_setting           tetragonal
_refine_ls_R_factor_all          0.016
loop_
_symmetry_equiv_pos_site_id
_symmetry_equiv_pos_as_xyz
1 '-y, x+1/2, -z'
2 'y+1/2, -x, -z'
3 'x+1/2, y+1/2, -z'
4 '-x, -y, -z'
5 'y, -x+1/2, z'
6 '-y+1/2, x, z'
7 '-x+1/2, -y+1/2, z'
8 'x, y, z'
loop_
_atom_site_label
_atom_site_type_symbol
_atom_site_fract_x
_atom_site_fract_y
_atom_site_fract_z
Tl1 Tl1+ 0.25 0.25 0.3768
Tl2 Tl1+ 0.25 0.25 0.8838
Cu1 Cu1+ 0 0 0
Cu2 Cu1+ 0.4751 0.946 0.3469
Cu3 Cu1+ 0.7321 0.3842 0.1211
Cu4 Cu1+ 0.2831 0.6065 0.3836
S1 S2- 0.9903 0.1916 0.1356
S2 S2- 0.0084 0.8096 0.3701

#End of data_81777-ICSD


