####################################################################### 
# 
# This file contains crystal structure data downloaded from the 
# Cambridge Structural Database (CSD) hosted by the Cambridge 
# Crystallographic Data Centre (CCDC) in cooperation with FIZ Karlsruhe.
# 
# Please note that these data are only for research purposes or private use.
# For detailed information please see under Terms & Conditions.
# Full information about CCDC and FIZ Karlsruhe data access policies and 
# citation guidelines are available at http://www.ccdc.cam.ac.uk/access/V1
# 
# Audit and citation data items may have been added by FIZ Karlsruhe. 
# Please retain this information to preserve the provenance of 
# this file and to allow appropriate attribution of the data. 
# 
#######################################################################

data_93134-ICSD
_database_code_depnum_ccdc_archive 'CCDC 1652607'
loop_
_citation_id
_citation_doi
_citation_year
1 10.1016/S0925-8388(00)01202-0 2001
_audit_update_record             
;
2018-02-27 deposited with the CCDC.	2025-03-31 downloaded from the CCDC.
;
_database_code_ICSD              93134
_chemical_name_systematic        'Thallium Heptacopper(I) Sulfide'
_chemical_formula_sum            'Cu7 S4 Tl1'
_cell_length_a                   10.1792
_cell_length_b                   10.1792
_cell_length_c                   3.8567
_cell_angle_alpha                90
_cell_angle_beta                 90
_cell_angle_gamma                90
_cell_volume                     399.62
_cell_formula_units_Z            2
_symmetry_space_group_name_H-M   'I 4/m'
_symmetry_Int_Tables_number      87
_symmetry_cell_setting           tetragonal
loop_
_symmetry_equiv_pos_site_id
_symmetry_equiv_pos_as_xyz
1 '-y, x, -z'
2 'y, -x, -z'
3 'x, y, -z'
4 '-x, -y, -z'
5 'y, -x, z'
6 '-y, x, z'
7 '-x, -y, z'
8 'x, y, z'
9 '-y+1/2, x+1/2, -z+1/2'
10 'y+1/2, -x+1/2, -z+1/2'
11 'x+1/2, y+1/2, -z+1/2'
12 '-x+1/2, -y+1/2, -z+1/2'
13 'y+1/2, -x+1/2, z+1/2'
14 '-y+1/2, x+1/2, z+1/2'
15 '-x+1/2, -y+1/2, z+1/2'
16 'x+1/2, y+1/2, z+1/2'
loop_
_atom_site_label
_atom_site_type_symbol
_atom_site_fract_x
_atom_site_fract_y
_atom_site_fract_z
Tl1 Tl1+ 0 0 0
Cu1 Cu1+ 0.021 0.3599 0
Cu2 Cu1+ 0.3037 0.2272 0
S1 S2- 0.2422 0.4307 0

#End of data_93134-ICSD


